peakDumbCharging = 14800; 
Machine = anon_enum(16); 
machineSpeed = [3700,3700,3700,3700,3700,3700,3700,3700,3700,3700,3700,3700,3700,3700,3700,3700]; 
machineLoad = [3700,3700,3700,3700,3700,3700,3700,3700,3700,3700,3700,3700,3700,3700,3700,3700]; 
Car = anon_enum(14); 
demandCar = [1240,1080,11960,10480,6440,33680,3320,7600,8480,7440,3360,16880,6360,33800]; 
arrivalCar = [77,71,69,69,64,63,63,60,56,55,49,47,46,32]; 
departureCar = [78,73,74,73,68,77,66,63,61,58,52,56,49,44]; 
